unknown
(model
; cardinality of BoundSet is 1
(declare-sort BoundSet 0)
; rep: @uc_BoundSet_0
; cardinality of UnboundSet is 1
(declare-sort UnboundSet 0)
(declare-fun groundTerm_2 () UnboundSet)
(define-fun IsMeaningfullyAveraged ((BOUND_VARIABLE_359 BoundSet)) Bool false)
(define-fun IsExistent ((BOUND_VARIABLE_359 BoundSet)) Bool false)
(define-fun IsGlobalTemperature ((BOUND_VARIABLE_359 BoundSet)) Bool false)
)
sat
(model
; cardinality of BoundSet is 1
(declare-sort BoundSet 0)
; rep: @uc_BoundSet_0
; cardinality of UnboundSet is 1
(declare-sort UnboundSet 0)
(declare-fun groundTerm_4 () UnboundSet)
(define-fun IsMeaningfullyAveraged ((BOUND_VARIABLE_380 BoundSet)) Bool false)
(define-fun IsExistent ((BOUND_VARIABLE_380 BoundSet)) Bool false)
(define-fun IsGlobalTemperature ((BOUND_VARIABLE_380 BoundSet)) Bool false)
)
